c clasp version 2.1.1
c Reading from pb_200_08.cnf
c Solving...
s UNKNOWN

c TIME LIMIT    : 1
c Models        : 0+    
c Time          : 18000.000s (Solving: 17999.30s 1st Model: 0.00s Unsat: 0.00s)
c CPU Time      : 17970.240s
c Choices       : 116185003
c Conflicts     : 54840141
c Restarts      : 70579  (Average: 777.00 Last: 54830174)

c Variables     : 190714 (Eliminated: 59022 Frozen:    0)
c Constraints   : 219391 (Binary: 64.8% Ternary: 33.9% Other:  1.3%)
c Lemmas        : 54840141 (Binary:  0.0% Ternary:  0.0% Other:100.0%)
c   Conflict    : 54840141 (Average Length: 88.1) 
c   Loop        : 0      (Average Length: 0.0) 
c   Other       : 0      (Average Length: 0.0)
c   Deleted     : 54657050
